(set-logic ALL)
(declare-const GEN1 Real)
(declare-const GEN2 Real)
(declare-const GEN3 Real)
(declare-const GEN4 Real)
(declare-const GEN5 Real)
(declare-const GEN6 Real)
(declare-const GEN7 Real)
(declare-const GEN8 Real)
(declare-const GEN9 Real)
(declare-const GEN10 Real)
(declare-const GEN11 Real)
(declare-const GEN12 Int)
(declare-const GEN13 Int)
(declare-const GEN14 Real)
(declare-const GEN15 Real)
(declare-const GEN16 Real)
(declare-const GEN17 Real)
(declare-const GEN18 Real)
(declare-const GEN19 Real)
(declare-const GEN20 Real)
(declare-const GEN21 Real)
(declare-const GEN22 Int)
(declare-const GEN23 Int)
(declare-const GEN24 Real)
(declare-const GEN25 Real)
(declare-const GEN26 Real)
(declare-const GEN27 Real)
(declare-const GEN28 Real)
(declare-const GEN29 Real)
(declare-const GEN30 Real)
(declare-const GEN31 Real)
(declare-const GEN32 Int)
(declare-const GEN33 Int)
(declare-const GEN34 Real)
(declare-const GEN35 Real)
(declare-const GEN36 Real)
(declare-const GEN37 Real)
(declare-const GEN38 Real)
(declare-const GEN39 Real)
(declare-const GEN40 Real)
(declare-const GEN41 Real)
(declare-const GEN42 Int)
(declare-const GEN43 Int)
(declare-const GEN44 Real)
(declare-const GEN45 Real)
(declare-const GEN46 Real)
(declare-const GEN47 Real)
(declare-const GEN48 Real)
(declare-const GEN49 Real)
(declare-const GEN50 Real)
(declare-const GEN51 Real)
(declare-const GEN52 Int)
(declare-const GEN53 Int)
(declare-const GEN54 Real)
(declare-const GEN55 Real)
(declare-const GEN56 Real)
(declare-const GEN57 Real)
(declare-const GEN58 Real)
(declare-const GEN59 Real)
(declare-const GEN60 Real)
(declare-const GEN61 Real)
(declare-const GEN62 Int)
(declare-const GEN63 Int)
(declare-const GEN64 Real)
(declare-const GEN65 Real)
(declare-const GEN66 Real)
(declare-const GEN67 Real)
(declare-const GEN68 Real)
(declare-const GEN69 Real)
(declare-const GEN70 Real)
(declare-const GEN71 Real)
(declare-const GEN72 Int)
(declare-const GEN73 Int)
(declare-const GEN74 Real)
(declare-const GEN75 Real)
(declare-const GEN76 Real)
(declare-const GEN77 Real)
(declare-const GEN78 Real)
(declare-const GEN79 Real)
(declare-const GEN80 Real)
(declare-const GEN81 Real)
(declare-const GEN82 Int)
(declare-const GEN83 Int)
(declare-const GEN84 Real)
(declare-const GEN85 Real)
(declare-const GEN86 Real)
(declare-const GEN87 Real)
(declare-const GEN88 Real)
(declare-const GEN89 Real)
(declare-const GEN90 Real)
(declare-const GEN91 Real)
(declare-const GEN92 Int)
(declare-const GEN93 Int)
(declare-const GEN94 Real)
(declare-const GEN95 Real)
(declare-const GEN96 Real)
(declare-const GEN97 Real)
(declare-const GEN98 Real)
(declare-const GEN99 Real)
(declare-const GEN100 Real)
(declare-const GEN101 Real)
(declare-const GEN102 Int)
(declare-const GEN103 Int)
(declare-const GEN104 Real)
(declare-const GEN105 Real)
(declare-const GEN106 Real)
(declare-const GEN107 Real)
(declare-const GEN108 Real)
(declare-const GEN109 Real)
(declare-const GEN110 Real)
(declare-const BAV111 Bool)
(declare-const BAV112 Bool)
(declare-const BAV113 Bool)
(declare-const BAV114 Bool)
(declare-const BAV115 Bool)
(declare-const BAV116 Bool)
(declare-const BAV117 Bool)
(declare-const BAV118 Bool)
(declare-const BAV119 Bool)
(declare-const BAV120 Bool)
(declare-const BAV121 Bool)
(declare-const BAV122 Bool)
(declare-const BAV123 Bool)
(declare-const BAV124 Bool)
(declare-const BAV125 Bool)
(declare-const BAV126 Bool)
(declare-const BAV127 Bool)
(declare-const BAV128 Bool)
(declare-const BAV129 Bool)
(declare-const BAV130 Bool)
(declare-const BAV131 Bool)
(declare-const BAV132 Bool)
(declare-const BAV133 Bool)
(declare-const BAV134 Bool)
(declare-const BAV135 Bool)
(declare-const BAV136 Bool)
(declare-const BAV137 Bool)
(declare-const BAV138 Bool)
(declare-const BAV139 Bool)
(declare-const BAV140 Bool)
(declare-const BAV141 Bool)
(declare-const BAV142 Bool)
(declare-const BAV143 Bool)
(declare-const BAV144 Bool)
(declare-const BAV145 Bool)
(declare-const BAV146 Bool)
(declare-const BAV147 Bool)
(declare-const BAV148 Bool)
(declare-const BAV149 Bool)
(declare-const BAV150 Bool)
(declare-const BAV151 Bool)
(declare-const BAV152 Bool)
(declare-const BAV153 Bool)
(declare-const BAV154 Bool)
(declare-const BAV155 Bool)
(declare-const BAV156 Bool)
(declare-const BAV157 Bool)
(declare-const BAV158 Bool)
(declare-const BAV159 Bool)
(declare-const BAV160 Bool)
(declare-const BAV161 Bool)
(declare-const BAV162 Bool)
(declare-const BAV163 Bool)
(declare-const BAV164 Bool)
(declare-const BAV165 Bool)
(declare-const BAV166 Bool)
(declare-const BAV167 Bool)
(declare-const BAV168 Bool)
(declare-const BAV169 Bool)
(declare-const BAV170 Bool)
(declare-const BAV171 Bool)
(declare-const BAV172 Bool)
(declare-const BAV173 Bool)
(declare-const BAV174 Bool)
(declare-const BAV175 Bool)
(declare-const BAV176 Bool)
(declare-const BAV177 Bool)
(declare-const BAV178 Bool)
(declare-const BAV179 Bool)
(declare-const BAV180 Bool)
(declare-const BAV181 Bool)
(declare-const BAV182 Bool)
(declare-const BAV183 Bool)
(declare-const BAV184 Bool)
(declare-const BAV185 Bool)
(declare-const BAV186 Bool)
(declare-const BAV187 Bool)
(declare-const BAV188 Bool)
(declare-const BAV189 Bool)
(declare-const BAV190 Bool)
(declare-const BAV191 Bool)
(declare-const BAV192 Bool)
(declare-const BAV193 Bool)
(declare-fun t@0 () Real)
(declare-fun y2@0 () Real)
(declare-fun y1@0 () Real)
(declare-fun t@5 () Real)
(declare-fun y1@5 () Real)
(declare-fun y2@5 () Real)
(declare-fun t@6 () Real)
(declare-fun y1@6 () Real)
(declare-fun y2@6 () Real)
(declare-fun t@1 () Real)
(declare-fun y1@1 () Real)
(declare-fun y2@1 () Real)
(declare-fun t@7 () Real)
(declare-fun y1@7 () Real)
(declare-fun y2@7 () Real)
(declare-fun y1@10 () Real)
(declare-fun y2@10 () Real)
(declare-fun t@2 () Real)
(declare-fun y1@2 () Real)
(declare-fun y2@2 () Real)
(declare-fun t@8 () Real)
(declare-fun y1@8 () Real)
(declare-fun y2@8 () Real)
(declare-fun t@3 () Real)
(declare-fun y1@3 () Real)
(declare-fun y2@3 () Real)
(declare-fun t@9 () Real)
(declare-fun y1@9 () Real)
(declare-fun y2@9 () Real)
(declare-fun t@4 () Real)
(declare-fun y1@4 () Real)
(declare-fun y2@4 () Real)
(declare-fun t@10 () Real)
(assert (and (and (and (= (+ (* GEN106 (sin t@0)) (+ (* GEN109 (cos t@0)) (* (- GEN108) y2@0))) GEN110) (= (+ (* GEN106 (sin t@0)) (+ (* (- GEN105) (cos t@0)) y1@0)) GEN107)) (= t@0 GEN104)) (and (and (and (= (+ t@0 (* (- GEN101) t@1)) (- (/ GEN102 GEN103))) (<= t@1 GEN100)) (= (+ (* GEN96 (sin t@1)) (+ (* (- GEN98) (cos t@1)) y1@1)) GEN99)) (= (+ (* GEN96 (sin t@1)) (+ (* GEN95 (cos t@1)) (* (- GEN94) y2@1))) GEN97)) (and (and (and (= (+ t@1 (* (- GEN91) t@2)) (- (/ GEN92 GEN93))) (<= t@2 GEN90)) (= (+ (* GEN86 (sin t@2)) (+ (* (- GEN88) (cos t@2)) y1@2)) GEN89)) (= (+ (* GEN86 (sin t@2)) (+ (* GEN85 (cos t@2)) (* (- GEN84) y2@2))) GEN87)) (and (and (and (= (+ t@2 (* (- GEN81) t@3)) (- (/ GEN82 GEN83))) (<= t@3 GEN80)) (= (+ (* GEN76 (sin t@3)) (+ (* (- GEN78) (cos t@3)) y1@3)) GEN79)) (= (+ (* GEN76 (sin t@3)) (+ (* GEN75 (cos t@3)) (* (- GEN74) y2@3))) GEN77)) (and (and (and (= (+ t@3 (* (- GEN71) t@4)) (- (/ GEN72 GEN73))) (<= t@4 GEN70)) (= (+ (* GEN66 (sin t@4)) (+ (* (- GEN68) (cos t@4)) y1@4)) GEN69)) (= (+ (* GEN66 (sin t@4)) (+ (* GEN65 (cos t@4)) (* (- GEN64) y2@4))) GEN67)) (and (and (and (= (+ t@4 (* (- GEN61) t@5)) (- (/ GEN62 GEN63))) (<= t@5 GEN60)) (= (+ (* GEN56 (sin t@5)) (+ (* (- GEN58) (cos t@5)) y1@5)) GEN59)) (= (+ (* GEN56 (sin t@5)) (+ (* GEN55 (cos t@5)) (* (- GEN54) y2@5))) GEN57)) (and (and (and (= (+ t@5 (* (- GEN51) t@6)) (- (/ GEN52 GEN53))) (<= t@6 GEN50)) (= (+ (* GEN46 (sin t@6)) (+ (* (- GEN48) (cos t@6)) y1@6)) GEN49)) (= (+ (* GEN46 (sin t@6)) (+ (* GEN45 (cos t@6)) (* (- GEN44) y2@6))) GEN47)) (and (and (and (= (+ t@6 (* (- GEN41) t@7)) (- (/ GEN42 GEN43))) (<= t@7 GEN40)) (= (+ (* GEN36 (sin t@7)) (+ (* (- GEN38) (cos t@7)) y1@7)) GEN39)) (= (+ (* GEN36 (sin t@7)) (+ (* GEN35 (cos t@7)) (* (- GEN34) y2@7))) GEN37)) (and (and (and (= (+ t@7 (* (- GEN31) t@8)) (- (/ GEN32 GEN33))) (<= t@8 GEN30)) (= (+ (* GEN26 (sin t@8)) (+ (* (- GEN28) (cos t@8)) y1@8)) GEN29)) (= (+ (* GEN26 (sin t@8)) (+ (* GEN25 (cos t@8)) (* (- GEN24) y2@8))) GEN27)) (and (and (and (= (+ t@8 (* (- GEN21) t@9)) (- (/ GEN22 GEN23))) (<= t@9 GEN20)) (= (+ (* GEN16 (sin t@9)) (+ (* (- GEN18) (cos t@9)) y1@9)) GEN19)) (= (+ (* GEN16 (sin t@9)) (+ (* GEN15 (cos t@9)) (* (- GEN14) y2@9))) GEN17)) (and (and (and (= (+ t@9 (* (- GEN11) t@10)) (- (/ GEN12 GEN13))) (<= t@10 GEN10)) (= (+ y1@10 (+ (* GEN8 (sin t@10)) (* (- GEN5) (cos t@10)))) GEN9)) (= (+ y2@10 (+ (* (- GEN6) (sin t@10)) (* (- GEN5) (cos t@10)))) GEN7)) (not (and (and (and (<= (- GEN4) y1@10) (<= y1@10 GEN3)) (<= y2@10 GEN2)) (<= (- GEN1) y2@10)))))
(assert (= BAV111 (and (and (and (= (+ (* GEN106 (sin t@0)) (+ (* GEN109 (cos t@0)) (* (- GEN108) y2@0))) GEN110) (= (+ (* GEN106 (sin t@0)) (+ (* (- GEN105) (cos t@0)) y1@0)) GEN107)) (= t@0 GEN104)) (and (and (and (= (+ t@0 (* (- GEN101) t@1)) (- (/ GEN102 GEN103))) (<= t@1 GEN100)) (= (+ (* GEN96 (sin t@1)) (+ (* (- GEN98) (cos t@1)) y1@1)) GEN99)) (= (+ (* GEN96 (sin t@1)) (+ (* GEN95 (cos t@1)) (* (- GEN94) y2@1))) GEN97)) (and (and (and (= (+ t@1 (* (- GEN91) t@2)) (- (/ GEN92 GEN93))) (<= t@2 GEN90)) (= (+ (* GEN86 (sin t@2)) (+ (* (- GEN88) (cos t@2)) y1@2)) GEN89)) (= (+ (* GEN86 (sin t@2)) (+ (* GEN85 (cos t@2)) (* (- GEN84) y2@2))) GEN87)) (and (and (and (= (+ t@2 (* (- GEN81) t@3)) (- (/ GEN82 GEN83))) (<= t@3 GEN80)) (= (+ (* GEN76 (sin t@3)) (+ (* (- GEN78) (cos t@3)) y1@3)) GEN79)) (= (+ (* GEN76 (sin t@3)) (+ (* GEN75 (cos t@3)) (* (- GEN74) y2@3))) GEN77)) (and (and (and (= (+ t@3 (* (- GEN71) t@4)) (- (/ GEN72 GEN73))) (<= t@4 GEN70)) (= (+ (* GEN66 (sin t@4)) (+ (* (- GEN68) (cos t@4)) y1@4)) GEN69)) (= (+ (* GEN66 (sin t@4)) (+ (* GEN65 (cos t@4)) (* (- GEN64) y2@4))) GEN67)) (and (and (and (= (+ t@4 (* (- GEN61) t@5)) (- (/ GEN62 GEN63))) (<= t@5 GEN60)) (= (+ (* GEN56 (sin t@5)) (+ (* (- GEN58) (cos t@5)) y1@5)) GEN59)) (= (+ (* GEN56 (sin t@5)) (+ (* GEN55 (cos t@5)) (* (- GEN54) y2@5))) GEN57)) (and (and (and (= (+ t@5 (* (- GEN51) t@6)) (- (/ GEN52 GEN53))) (<= t@6 GEN50)) (= (+ (* GEN46 (sin t@6)) (+ (* (- GEN48) (cos t@6)) y1@6)) GEN49)) (= (+ (* GEN46 (sin t@6)) (+ (* GEN45 (cos t@6)) (* (- GEN44) y2@6))) GEN47)) (and (and (and (= (+ t@6 (* (- GEN41) t@7)) (- (/ GEN42 GEN43))) (<= t@7 GEN40)) (= (+ (* GEN36 (sin t@7)) (+ (* (- GEN38) (cos t@7)) y1@7)) GEN39)) (= (+ (* GEN36 (sin t@7)) (+ (* GEN35 (cos t@7)) (* (- GEN34) y2@7))) GEN37)) (and (and (and (= (+ t@7 (* (- GEN31) t@8)) (- (/ GEN32 GEN33))) (<= t@8 GEN30)) (= (+ (* GEN26 (sin t@8)) (+ (* (- GEN28) (cos t@8)) y1@8)) GEN29)) (= (+ (* GEN26 (sin t@8)) (+ (* GEN25 (cos t@8)) (* (- GEN24) y2@8))) GEN27)) (and (and (and (= (+ t@8 (* (- GEN21) t@9)) (- (/ GEN22 GEN23))) (<= t@9 GEN20)) (= (+ (* GEN16 (sin t@9)) (+ (* (- GEN18) (cos t@9)) y1@9)) GEN19)) (= (+ (* GEN16 (sin t@9)) (+ (* GEN15 (cos t@9)) (* (- GEN14) y2@9))) GEN17)) (and (and (and (= (+ t@9 (* (- GEN11) t@10)) (- (/ GEN12 GEN13))) (<= t@10 GEN10)) (= (+ y1@10 (+ (* GEN8 (sin t@10)) (* (- GEN5) (cos t@10)))) GEN9)) (= (+ y2@10 (+ (* (- GEN6) (sin t@10)) (* (- GEN5) (cos t@10)))) GEN7)) (not (and (and (and (<= (- GEN4) y1@10) (<= y1@10 GEN3)) (<= y2@10 GEN2)) (<= (- GEN1) y2@10))))))
(assert (= BAV112 (and (and (= (+ (* GEN106 (sin t@0)) (+ (* GEN109 (cos t@0)) (* (- GEN108) y2@0))) GEN110) (= (+ (* GEN106 (sin t@0)) (+ (* (- GEN105) (cos t@0)) y1@0)) GEN107)) (= t@0 GEN104))))
(assert (= BAV113 (and (= (+ (* GEN106 (sin t@0)) (+ (* GEN109 (cos t@0)) (* (- GEN108) y2@0))) GEN110) (= (+ (* GEN106 (sin t@0)) (+ (* (- GEN105) (cos t@0)) y1@0)) GEN107))))
(assert (= BAV114 (= (+ (* GEN106 (sin t@0)) (+ (* GEN109 (cos t@0)) (* (- GEN108) y2@0))) GEN110)))
(assert (= BAV115 (= (+ (* GEN106 (sin t@0)) (+ (* (- GEN105) (cos t@0)) y1@0)) GEN107)))
(assert (= BAV116 (= t@0 GEN104)))
(assert (= BAV117 (and (and (and (= (+ t@0 (* (- GEN101) t@1)) (- (/ GEN102 GEN103))) (<= t@1 GEN100)) (= (+ (* GEN96 (sin t@1)) (+ (* (- GEN98) (cos t@1)) y1@1)) GEN99)) (= (+ (* GEN96 (sin t@1)) (+ (* GEN95 (cos t@1)) (* (- GEN94) y2@1))) GEN97))))
(assert (= BAV118 (and (and (= (+ t@0 (* (- GEN101) t@1)) (- (/ GEN102 GEN103))) (<= t@1 GEN100)) (= (+ (* GEN96 (sin t@1)) (+ (* (- GEN98) (cos t@1)) y1@1)) GEN99))))
(assert (= BAV119 (and (= (+ t@0 (* (- GEN101) t@1)) (- (/ GEN102 GEN103))) (<= t@1 GEN100))))
(assert (= BAV120 (= (+ t@0 (* (- GEN101) t@1)) (- (/ GEN102 GEN103)))))
(assert (= BAV121 (<= t@1 GEN100)))
(assert (= BAV122 (= (+ (* GEN96 (sin t@1)) (+ (* (- GEN98) (cos t@1)) y1@1)) GEN99)))
(assert (= BAV123 (= (+ (* GEN96 (sin t@1)) (+ (* GEN95 (cos t@1)) (* (- GEN94) y2@1))) GEN97)))
(assert (= BAV124 (and (and (and (= (+ t@1 (* (- GEN91) t@2)) (- (/ GEN92 GEN93))) (<= t@2 GEN90)) (= (+ (* GEN86 (sin t@2)) (+ (* (- GEN88) (cos t@2)) y1@2)) GEN89)) (= (+ (* GEN86 (sin t@2)) (+ (* GEN85 (cos t@2)) (* (- GEN84) y2@2))) GEN87))))
(assert (= BAV125 (and (and (= (+ t@1 (* (- GEN91) t@2)) (- (/ GEN92 GEN93))) (<= t@2 GEN90)) (= (+ (* GEN86 (sin t@2)) (+ (* (- GEN88) (cos t@2)) y1@2)) GEN89))))
(assert (= BAV126 (and (= (+ t@1 (* (- GEN91) t@2)) (- (/ GEN92 GEN93))) (<= t@2 GEN90))))
(assert (= BAV127 (= (+ t@1 (* (- GEN91) t@2)) (- (/ GEN92 GEN93)))))
(assert (= BAV128 (<= t@2 GEN90)))
(assert (= BAV129 (= (+ (* GEN86 (sin t@2)) (+ (* (- GEN88) (cos t@2)) y1@2)) GEN89)))
(assert (= BAV130 (= (+ (* GEN86 (sin t@2)) (+ (* GEN85 (cos t@2)) (* (- GEN84) y2@2))) GEN87)))
(assert (= BAV131 (and (and (and (= (+ t@2 (* (- GEN81) t@3)) (- (/ GEN82 GEN83))) (<= t@3 GEN80)) (= (+ (* GEN76 (sin t@3)) (+ (* (- GEN78) (cos t@3)) y1@3)) GEN79)) (= (+ (* GEN76 (sin t@3)) (+ (* GEN75 (cos t@3)) (* (- GEN74) y2@3))) GEN77))))
(assert (= BAV132 (and (and (= (+ t@2 (* (- GEN81) t@3)) (- (/ GEN82 GEN83))) (<= t@3 GEN80)) (= (+ (* GEN76 (sin t@3)) (+ (* (- GEN78) (cos t@3)) y1@3)) GEN79))))
(assert (= BAV133 (and (= (+ t@2 (* (- GEN81) t@3)) (- (/ GEN82 GEN83))) (<= t@3 GEN80))))
(assert (= BAV134 (= (+ t@2 (* (- GEN81) t@3)) (- (/ GEN82 GEN83)))))
(assert (= BAV135 (<= t@3 GEN80)))
(assert (= BAV136 (= (+ (* GEN76 (sin t@3)) (+ (* (- GEN78) (cos t@3)) y1@3)) GEN79)))
(assert (= BAV137 (= (+ (* GEN76 (sin t@3)) (+ (* GEN75 (cos t@3)) (* (- GEN74) y2@3))) GEN77)))
(assert (= BAV138 (and (and (and (= (+ t@3 (* (- GEN71) t@4)) (- (/ GEN72 GEN73))) (<= t@4 GEN70)) (= (+ (* GEN66 (sin t@4)) (+ (* (- GEN68) (cos t@4)) y1@4)) GEN69)) (= (+ (* GEN66 (sin t@4)) (+ (* GEN65 (cos t@4)) (* (- GEN64) y2@4))) GEN67))))
(assert (= BAV139 (and (and (= (+ t@3 (* (- GEN71) t@4)) (- (/ GEN72 GEN73))) (<= t@4 GEN70)) (= (+ (* GEN66 (sin t@4)) (+ (* (- GEN68) (cos t@4)) y1@4)) GEN69))))
(assert (= BAV140 (and (= (+ t@3 (* (- GEN71) t@4)) (- (/ GEN72 GEN73))) (<= t@4 GEN70))))
(assert (= BAV141 (= (+ t@3 (* (- GEN71) t@4)) (- (/ GEN72 GEN73)))))
(assert (= BAV142 (<= t@4 GEN70)))
(assert (= BAV143 (= (+ (* GEN66 (sin t@4)) (+ (* (- GEN68) (cos t@4)) y1@4)) GEN69)))
(assert (= BAV144 (= (+ (* GEN66 (sin t@4)) (+ (* GEN65 (cos t@4)) (* (- GEN64) y2@4))) GEN67)))
(assert (= BAV145 (and (and (and (= (+ t@4 (* (- GEN61) t@5)) (- (/ GEN62 GEN63))) (<= t@5 GEN60)) (= (+ (* GEN56 (sin t@5)) (+ (* (- GEN58) (cos t@5)) y1@5)) GEN59)) (= (+ (* GEN56 (sin t@5)) (+ (* GEN55 (cos t@5)) (* (- GEN54) y2@5))) GEN57))))
(assert (= BAV146 (and (and (= (+ t@4 (* (- GEN61) t@5)) (- (/ GEN62 GEN63))) (<= t@5 GEN60)) (= (+ (* GEN56 (sin t@5)) (+ (* (- GEN58) (cos t@5)) y1@5)) GEN59))))
(assert (= BAV147 (and (= (+ t@4 (* (- GEN61) t@5)) (- (/ GEN62 GEN63))) (<= t@5 GEN60))))
(assert (= BAV148 (= (+ t@4 (* (- GEN61) t@5)) (- (/ GEN62 GEN63)))))
(assert (= BAV149 (<= t@5 GEN60)))
(assert (= BAV150 (= (+ (* GEN56 (sin t@5)) (+ (* (- GEN58) (cos t@5)) y1@5)) GEN59)))
(assert (= BAV151 (= (+ (* GEN56 (sin t@5)) (+ (* GEN55 (cos t@5)) (* (- GEN54) y2@5))) GEN57)))
(assert (= BAV152 (and (and (and (= (+ t@5 (* (- GEN51) t@6)) (- (/ GEN52 GEN53))) (<= t@6 GEN50)) (= (+ (* GEN46 (sin t@6)) (+ (* (- GEN48) (cos t@6)) y1@6)) GEN49)) (= (+ (* GEN46 (sin t@6)) (+ (* GEN45 (cos t@6)) (* (- GEN44) y2@6))) GEN47))))
(assert (= BAV153 (and (and (= (+ t@5 (* (- GEN51) t@6)) (- (/ GEN52 GEN53))) (<= t@6 GEN50)) (= (+ (* GEN46 (sin t@6)) (+ (* (- GEN48) (cos t@6)) y1@6)) GEN49))))
(assert (= BAV154 (and (= (+ t@5 (* (- GEN51) t@6)) (- (/ GEN52 GEN53))) (<= t@6 GEN50))))
(assert (= BAV155 (= (+ t@5 (* (- GEN51) t@6)) (- (/ GEN52 GEN53)))))
(assert (= BAV156 (<= t@6 GEN50)))
(assert (= BAV157 (= (+ (* GEN46 (sin t@6)) (+ (* (- GEN48) (cos t@6)) y1@6)) GEN49)))
(assert (= BAV158 (= (+ (* GEN46 (sin t@6)) (+ (* GEN45 (cos t@6)) (* (- GEN44) y2@6))) GEN47)))
(assert (= BAV159 (and (and (and (= (+ t@6 (* (- GEN41) t@7)) (- (/ GEN42 GEN43))) (<= t@7 GEN40)) (= (+ (* GEN36 (sin t@7)) (+ (* (- GEN38) (cos t@7)) y1@7)) GEN39)) (= (+ (* GEN36 (sin t@7)) (+ (* GEN35 (cos t@7)) (* (- GEN34) y2@7))) GEN37))))
(assert (= BAV160 (and (and (= (+ t@6 (* (- GEN41) t@7)) (- (/ GEN42 GEN43))) (<= t@7 GEN40)) (= (+ (* GEN36 (sin t@7)) (+ (* (- GEN38) (cos t@7)) y1@7)) GEN39))))
(assert (= BAV161 (and (= (+ t@6 (* (- GEN41) t@7)) (- (/ GEN42 GEN43))) (<= t@7 GEN40))))
(assert (= BAV162 (= (+ t@6 (* (- GEN41) t@7)) (- (/ GEN42 GEN43)))))
(assert (= BAV163 (<= t@7 GEN40)))
(assert (= BAV164 (= (+ (* GEN36 (sin t@7)) (+ (* (- GEN38) (cos t@7)) y1@7)) GEN39)))
(assert (= BAV165 (= (+ (* GEN36 (sin t@7)) (+ (* GEN35 (cos t@7)) (* (- GEN34) y2@7))) GEN37)))
(assert (= BAV166 (and (and (and (= (+ t@7 (* (- GEN31) t@8)) (- (/ GEN32 GEN33))) (<= t@8 GEN30)) (= (+ (* GEN26 (sin t@8)) (+ (* (- GEN28) (cos t@8)) y1@8)) GEN29)) (= (+ (* GEN26 (sin t@8)) (+ (* GEN25 (cos t@8)) (* (- GEN24) y2@8))) GEN27))))
(assert (= BAV167 (and (and (= (+ t@7 (* (- GEN31) t@8)) (- (/ GEN32 GEN33))) (<= t@8 GEN30)) (= (+ (* GEN26 (sin t@8)) (+ (* (- GEN28) (cos t@8)) y1@8)) GEN29))))
(assert (= BAV168 (and (= (+ t@7 (* (- GEN31) t@8)) (- (/ GEN32 GEN33))) (<= t@8 GEN30))))
(assert (= BAV169 (= (+ t@7 (* (- GEN31) t@8)) (- (/ GEN32 GEN33)))))
(assert (= BAV170 (<= t@8 GEN30)))
(assert (= BAV171 (= (+ (* GEN26 (sin t@8)) (+ (* (- GEN28) (cos t@8)) y1@8)) GEN29)))
(assert (= BAV172 (= (+ (* GEN26 (sin t@8)) (+ (* GEN25 (cos t@8)) (* (- GEN24) y2@8))) GEN27)))
(assert (= BAV173 (and (and (and (= (+ t@8 (* (- GEN21) t@9)) (- (/ GEN22 GEN23))) (<= t@9 GEN20)) (= (+ (* GEN16 (sin t@9)) (+ (* (- GEN18) (cos t@9)) y1@9)) GEN19)) (= (+ (* GEN16 (sin t@9)) (+ (* GEN15 (cos t@9)) (* (- GEN14) y2@9))) GEN17))))
(assert (= BAV174 (and (and (= (+ t@8 (* (- GEN21) t@9)) (- (/ GEN22 GEN23))) (<= t@9 GEN20)) (= (+ (* GEN16 (sin t@9)) (+ (* (- GEN18) (cos t@9)) y1@9)) GEN19))))
(assert (= BAV175 (and (= (+ t@8 (* (- GEN21) t@9)) (- (/ GEN22 GEN23))) (<= t@9 GEN20))))
(assert (= BAV176 (= (+ t@8 (* (- GEN21) t@9)) (- (/ GEN22 GEN23)))))
(assert (= BAV177 (<= t@9 GEN20)))
(assert (= BAV178 (= (+ (* GEN16 (sin t@9)) (+ (* (- GEN18) (cos t@9)) y1@9)) GEN19)))
(assert (= BAV179 (= (+ (* GEN16 (sin t@9)) (+ (* GEN15 (cos t@9)) (* (- GEN14) y2@9))) GEN17)))
(assert (= BAV180 (and (and (and (= (+ t@9 (* (- GEN11) t@10)) (- (/ GEN12 GEN13))) (<= t@10 GEN10)) (= (+ y1@10 (+ (* GEN8 (sin t@10)) (* (- GEN5) (cos t@10)))) GEN9)) (= (+ y2@10 (+ (* (- GEN6) (sin t@10)) (* (- GEN5) (cos t@10)))) GEN7))))
(assert (= BAV181 (and (and (= (+ t@9 (* (- GEN11) t@10)) (- (/ GEN12 GEN13))) (<= t@10 GEN10)) (= (+ y1@10 (+ (* GEN8 (sin t@10)) (* (- GEN5) (cos t@10)))) GEN9))))
(assert (= BAV182 (and (= (+ t@9 (* (- GEN11) t@10)) (- (/ GEN12 GEN13))) (<= t@10 GEN10))))
(assert (= BAV183 (= (+ t@9 (* (- GEN11) t@10)) (- (/ GEN12 GEN13)))))
(assert (= BAV184 (<= t@10 GEN10)))
(assert (= BAV185 (= (+ y1@10 (+ (* GEN8 (sin t@10)) (* (- GEN5) (cos t@10)))) GEN9)))
(assert (= BAV186 (= (+ y2@10 (+ (* (- GEN6) (sin t@10)) (* (- GEN5) (cos t@10)))) GEN7)))
(assert (= BAV187 (and (and (and (<= (- GEN4) y1@10) (<= y1@10 GEN3)) (<= y2@10 GEN2)) (<= (- GEN1) y2@10))))
(assert (= BAV188 (and (and (<= (- GEN4) y1@10) (<= y1@10 GEN3)) (<= y2@10 GEN2))))
(assert (= BAV189 (and (<= (- GEN4) y1@10) (<= y1@10 GEN3))))
(assert (= BAV190 (<= (- GEN4) y1@10)))
(assert (= BAV191 (<= y1@10 GEN3)))
(assert (= BAV192 (<= y2@10 GEN2)))
(assert (= BAV193 (<= (- GEN1) y2@10)))
(check-sat)
(get-model)
(exit)